15 40 102
1 2 4
1 3 4
1 4 1
1 5 1
1 10 5
1 12 2
1 13 1
2 5 5
2 6 5
2 7 3
2 10 5
2 11 5
2 12 1
2 14 2
2 15 5
3 6 3
3 7 3
3 12 3
3 14 3
3 15 5
4 8 2
4 12 5
4 13 1
5 12 5
5 14 2
6 7 5
6 8 4
6 10 2
6 14 3
7 11 4
7 12 3
7 14 1
8 9 5
8 13 2
8 14 5
9 12 4
11 12 3
12 14 3
12 15 2
13 15 2
